Reading model...
...model read.
creating competitive generators file...
...competitive generators recorded.
Loading data...
.. real-time data read.
Compiling instance...
...instance created.
Creating Offer Mitigation (model will solve as dispatch if TRUE)...
...storage offer mitigation file created
Converting model to MPEC...
...converted
NOTE: initial MIP solve with only storage competitive to get feasible solution
Solving...

Welcome to IBM(R) ILOG(R) CPLEX(R) Interactive Optimizer 12.9.0.0
  with Simplex, Mixed Integer & Barrier Optimizers
5725-A06 5725-A29 5724-Y48 5724-Y49 5724-Y54 5724-Y55 5655-Y21
Copyright IBM Corp. 1988, 2019.  All Rights Reserved.

Type 'help' for a list of available commands.
Type 'help' followed by a command name for more
information on commands.

CPLEX> Logfile 'cplex.log' closed.
Logfile 'C:\Users\llavin\Desktop\test826\logs\tmpkijmpjgo.cplex.log' open.
CPLEX> New value for parallel optimization mode: -1
CPLEX> New value for mixed integer optimality gap tolerance: 0.5
CPLEX> New value for feasibility tolerance: 1e-09
CPLEX> New value for deterministic time limit in ticks: 150000
CPLEX> Problem 'C:\Users\llavin\Desktop\test826\logs\tmp7w23js3f.pyomo.lp' read.
Read time = 0.53 sec. (28.29 ticks)
CPLEX> Problem name         : C:\Users\llavin\Desktop\test826\logs\tmp7w23js3f.pyomo.lp
Objective sense      : Maximize
Variables            :  107787  [Nneg: 1,  Box: 44058,  Free: 8928,
                                 Binary: 54800]
Objective nonzeros   :   17555
Linear constraints   :  246917  [Less: 82872,  Greater: 118432,  Equal: 45613]
  Nonzeros           :  618751
  RHS nonzeros       :  135069

Variables            : Min LB: -5000.000        Max UB: 1000000.       
Objective nonzeros   : Min   : 0.008333333      Max   : 208.3333       
Linear constraints   :
  Nonzeros           : Min   : 0.008333333      Max   : 1000000.       
  RHS nonzeros       : Min   : 0.008333333      Max   : 1000000.       
CPLEX> CPXPARAM_Parallel                                -1
CPXPARAM_Simplex_Tolerances_Feasibility          1.0000000000000001e-09
CPXPARAM_DetTimeLimit                            150000
CPXPARAM_MIP_Tolerances_MIPGap                   0.5
Tried aggregator 3 times.
MIP Presolve eliminated 181102 rows and 41046 columns.
MIP Presolve added 6226 rows and 0 columns.
MIP Presolve modified 50309 coefficients.
Aggregator did 25938 substitutions.
Reduced MIP has 46103 rows, 39305 columns, and 136338 nonzeros.
Reduced MIP has 15494 binaries, 0 generals, 0 SOSs, and 0 indicators.
Presolve time = 0.63 sec. (350.77 ticks)
Probing fixed 809 vars, tightened 9293 bounds.
Probing time = 0.38 sec. (14.84 ticks)
Tried aggregator 2 times.
MIP Presolve eliminated 1812 rows and 1619 columns.
MIP Presolve modified 5602 coefficients.
Aggregator did 48 substitutions.
Reduced MIP has 44243 rows, 37638 columns, and 130946 nonzeros.
Reduced MIP has 14685 binaries, 0 generals, 0 SOSs, and 0 indicators.
Presolve time = 0.25 sec. (220.19 ticks)
Probing fixed 1 vars, tightened 535 bounds.
Probing time = 0.50 sec. (18.08 ticks)
Clique table members: 84458.
MIP emphasis: balance optimality and feasibility.
MIP search method: dynamic search.
Parallel mode: opportunistic, using up to 32 threads.
Root relaxation solution time = 0.92 sec. (1660.71 ticks)

        Nodes                                         Cuts/
   Node  Left     Objective  IInf  Best Integer    Best Bound    ItCnt     Gap

      0     0        0.0000    44                      0.0000     9025         
*     0+    0                            0.0000        0.0000             0.00%
      0     0        cutoff              0.0000        0.0000     9025    0.00%
Elapsed time = 4.06 sec. (3399.91 ticks, tree = 0.01 MB, solutions = 1)

Root node processing (before b&c):
  Real time             =    4.09 sec. (3403.53 ticks)
Parallel b&c, 32 threads:
  Real time             =    0.00 sec. (0.00 ticks)
  Sync time (average)   =    0.00 sec.
  Wait time (average)   =    0.00 sec.
                          ------------
Total (root+branch&cut) =    4.09 sec. (3403.53 ticks)

Solution pool: 1 solution saved.

MIP - Integer optimal solution:  Objective =  3.1127456168e-10
Solution time =    4.14 sec.  Iterations = 9025  Nodes = 0
Deterministic time = 3403.84 ticks  (822.18 ticks/sec)

CPLEX> Incumbent solution written to file 'C:\Users\llavin\Desktop\test826\logs\tmpcubz54x2.cplex.sol'.
CPLEX> NOTE: no warmstart specified for MIP iteration, default behavior is true
NOTE: resolving with all competitive generators using storage-only solution to warmstart
Solving...

Welcome to IBM(R) ILOG(R) CPLEX(R) Interactive Optimizer 12.9.0.0
  with Simplex, Mixed Integer & Barrier Optimizers
5725-A06 5725-A29 5724-Y48 5724-Y49 5724-Y54 5724-Y55 5655-Y21
Copyright IBM Corp. 1988, 2019.  All Rights Reserved.

Type 'help' for a list of available commands.
Type 'help' followed by a command name for more
information on commands.

CPLEX> Logfile 'cplex.log' closed.
Logfile 'C:\Users\llavin\Desktop\test826\logs\tmp26vzvigx.cplex.log' open.
CPLEX> New value for parallel optimization mode: -1
CPLEX> New value for mixed integer optimality gap tolerance: 0.5
CPLEX> New value for feasibility tolerance: 1e-09
CPLEX> New value for deterministic time limit in ticks: 150000
CPLEX> Problem 'C:\Users\llavin\Desktop\test826\logs\tmpuhww_r67.pyomo.lp' read.
Read time = 0.53 sec. (28.34 ticks)
CPLEX> MIP start file 'C:\Users\llavin\Desktop\test826\logs\tmp0jc879m3.cplex.mst' read.
CPLEX> Problem name         : C:\Users\llavin\Desktop\test826\logs\tmpuhww_r67.pyomo.lp
Objective sense      : Maximize
Variables            :  109227  [Nneg: 1,  Box: 45498,  Free: 8928,
                                 Binary: 54800]
Objective nonzeros   :   18947
Linear constraints   :  246917  [Less: 82872,  Greater: 118432,  Equal: 45613]
  Nonzeros           :  618751
  RHS nonzeros       :  135069

Variables            : Min LB: -5000.000        Max UB: 1000000.       
Objective nonzeros   : Min   : 0.008333333      Max   : 208.3333       
Linear constraints   :
  Nonzeros           : Min   : 0.008333333      Max   : 1000000.       
  RHS nonzeros       : Min   : 0.008333333      Max   : 1000000.       
CPLEX> CPXPARAM_Parallel                                -1
CPXPARAM_Simplex_Tolerances_Feasibility          1.0000000000000001e-09
CPXPARAM_DetTimeLimit                            150000
CPXPARAM_MIP_Tolerances_MIPGap                   0.5
Warning:  No solution found from 1 MIP starts.
Retaining values of one MIP start for possible repair.
Tried aggregator 3 times.
MIP Presolve eliminated 181102 rows and 42486 columns.
MIP Presolve added 6226 rows and 0 columns.
MIP Presolve modified 50309 coefficients.
Aggregator did 25938 substitutions.
Reduced MIP has 46103 rows, 39305 columns, and 136338 nonzeros.
Reduced MIP has 15494 binaries, 0 generals, 0 SOSs, and 0 indicators.
Presolve time = 0.63 sec. (351.49 ticks)
Probing fixed 809 vars, tightened 9293 bounds.
Probing time = 0.38 sec. (14.84 ticks)
Tried aggregator 2 times.
MIP Presolve eliminated 1812 rows and 1619 columns.
MIP Presolve modified 5602 coefficients.
Aggregator did 48 substitutions.
Reduced MIP has 44243 rows, 37638 columns, and 130946 nonzeros.
Reduced MIP has 14685 binaries, 0 generals, 0 SOSs, and 0 indicators.
Presolve time = 0.23 sec. (220.05 ticks)
Probing fixed 1 vars, tightened 535 bounds.
Probing time = 0.52 sec. (18.08 ticks)
Clique table members: 84458.
MIP emphasis: balance optimality and feasibility.
MIP search method: dynamic search.
Parallel mode: opportunistic, using up to 32 threads.
Root relaxation solution time = 1.08 sec. (1797.59 ticks)

        Nodes                                         Cuts/
   Node  Left     Objective  IInf  Best Integer    Best Bound    ItCnt     Gap

      0     0    20754.0223   521                  20754.0223    10354         
      0     0    19316.6856   437                   Cuts: 253    10808         
      0     0    19269.3212   409                    Cuts: 75    10881         
      0     0    19269.3212   414                    Cuts: 14    10903         
      0     0    19269.3212   387                 Flowcuts: 2    10911         
      0     0    19269.3212   390                     Cuts: 4    10931         
Repair heuristic found nothing.
      0    29    infeasible                           Cuts: 5    11441         
Elapsed time = 13.20 sec. (8793.69 ticks, tree = 0.02 MB, solutions = 0)
    112   167    infeasible                        19036.2460    12845         
    470   148    17524.0719   330                  19035.2615    12746         
    965   165    16969.0210   296                  19035.2615    12863         
   1266   695    14113.8480   221                  18985.6176    22855         
   1552   914    13411.7747   232                  18985.6176    27453         
   1933  1175    12209.3915   206                  18985.6176    31232         
   2454  1284    10493.8685   123                  18985.6176    32493         
   2939  1872     9169.2333    98                  18985.6176    39431         
*  3095+ 2002                            0.0000    18985.6176              --- 
   3446  1906     7942.5976   124        0.0000    18985.6176    39888     --- 
   4785  2728      255.9399     4        0.0000    18690.9132    59685     --- 
Elapsed time = 35.45 sec. (11899.26 ticks, tree = 29.87 MB, solutions = 2)
   6090  3060        cutoff              0.0000    18323.4616   113899     --- 
   7722  2584    infeasible              0.0000    18323.4616   184811     --- 

Cover cuts applied:  1
Implied bound cuts applied:  7
Flow cuts applied:  190
Mixed integer rounding cuts applied:  22
Lift and project cuts applied:  1

Root node processing (before b&c):
  Real time             =   10.56 sec. (8762.83 ticks)
Parallel b&c, 32 threads:
  Real time             =   36.45 sec. (8318.51 ticks)
  Sync time (average)   =    1.47 sec.
  Wait time (average)   =    0.00 sec.
                          ------------
Total (root+branch&cut) =   47.02 sec. (17081.33 ticks)

Solution pool: 6 solutions saved.

MIP - Integer optimal, tolerance (0.5/1e-06):  Objective =  2.3464963306e-10
Current MIP best bound =  2.7648638934e-10 (gap = 4.18368e-11, 0.00%)
Solution time =   47.03 sec.  Iterations = 221431  Nodes = 7755 (1841)
Deterministic time = 17081.65 ticks  (363.20 ticks/sec)

CPLEX> Incumbent solution written to file 'C:\Users\llavin\Desktop\test826\logs\tmp2o0xennq.cplex.sol'.
CPLEX> Exporting results... 
